instances/shortest_path/discrete_knapsack_uncertainty/nohadani_5_2.kp
86826
98

[2.0829691081051114 0.7161295533039921 5.236019333734712 1.3557199643524436 0.5351229913437044 0.32658240634964014 2.4143977797998164 3.9343160569998585 2.848298331011168 0.5055683849718523 2.5022343252039922 4.006735116468111 3.5894356714056723 1.468763650347527 0.7663180179771979 3.593125460671588]

[44 60 98 87 80 6 25 28 41 2 96 47 64 36 93 17]
